(set-logic QF_S)
(declare-fun var0 () String)
(assert (str.in.re var0 (re.++ (re.union (re.union (str.to.re "00") (str.to.re "11")) (re.union (str.to.re "2") (str.to.re "333"))) (re.++ (re.union (re.* (str.to.re "444")) (re.* (str.to.re "5"))) (re.++ (re.+ (re.* (str.to.re "6"))) (re.++ (re.* (re.+ (str.to.re "777"))) (re.++ (re.* (re.* (str.to.re "88"))) (re.++ (re.+ (re.union (str.to.re "99") (str.to.re "aa"))) (re.++ (re.+ (re.* (str.to.re "bb"))) (re.++ (re.+ (re.+ (str.to.re "ccc"))) (re.++ (re.+ (re.union (str.to.re "ddd") (str.to.re "e"))) (re.++ (re.* (re.union (str.to.re "fff") (str.to.re "g"))) (re.++ (re.+ (re.* (str.to.re "hhh"))) (re.++ (re.* (re.union (str.to.re "i") (str.to.re "jj"))) (re.++ (re.+ (re.union (str.to.re "kk") (str.to.re "ll"))) (re.++ (re.union (re.* (str.to.re "mmm")) (re.* (str.to.re "n"))) (re.++ (re.+ (re.* (str.to.re "o"))) (re.++ (re.union (re.* (str.to.re "ppp")) (re.* (str.to.re "qqq"))) (re.++ (re.* (re.union (str.to.re "rr") (str.to.re "s"))) (re.++ (re.+ (re.+ (str.to.re "ttt"))) (re.++ (re.+ (re.* (str.to.re "uuu"))) (re.++ (re.union (re.+ (str.to.re "vvv")) (re.+ (str.to.re "w"))) (re.++ (re.union (re.* (str.to.re "xxx")) (re.* (str.to.re "y"))) (re.++ (re.+ (re.+ (str.to.re "zz"))) (re.++ (re.+ (re.union (str.to.re "AAA") (str.to.re "BB"))) (re.++ (re.union (re.union (str.to.re "CC") (str.to.re "DD")) (re.union (str.to.re "EEE") (str.to.re "F"))) (re.++ (re.+ (re.+ (str.to.re "GGG"))) (re.++ (re.* (re.union (str.to.re "HH") (str.to.re "II"))) (re.++ (re.+ (re.* (str.to.re "JJ"))) (re.++ (re.union (re.+ (str.to.re "KKK")) (re.+ (str.to.re "L"))) (re.++ (re.union (re.+ (str.to.re "M")) (re.+ (str.to.re "NNN"))) (re.++ (re.union (re.+ (str.to.re "O")) (re.+ (str.to.re "PPP"))) (re.++ (re.+ (re.union (str.to.re "QQ") (str.to.re "RRR"))) (re.++ (re.* (re.+ (str.to.re "S"))) (re.++ (re.union (re.+ (str.to.re "TT")) (re.+ (str.to.re "UUU"))) (re.++ (re.* (re.* (str.to.re "VV"))) (re.++ (re.+ (re.* (str.to.re "W"))) (re.++ (re.union (re.+ (str.to.re "X")) (re.+ (str.to.re "Y"))) (re.++ (re.* (re.* (str.to.re "ZZZ"))) (re.++ (re.* (re.union (str.to.re "!!") (str.to.re """"""""))) (re.++ (re.+ (re.union (str.to.re "###") (str.to.re "$$$"))) (re.++ (re.union (re.* (str.to.re "%%")) (re.* (str.to.re "&"))) (re.++ (re.union (re.+ (str.to.re "'")) (re.+ (str.to.re "((("))) (re.++ (re.union (re.* (str.to.re ")")) (re.* (str.to.re "*"))) (re.++ (re.* (re.+ (str.to.re "+++"))) (re.++ (re.+ (re.+ (str.to.re ",,,"))) (re.++ (re.+ (re.* (str.to.re "---"))) (re.++ (re.union (re.+ (str.to.re "..")) (re.+ (str.to.re "/"))) (re.++ (re.union (re.+ (str.to.re ":::")) (re.+ (str.to.re ";"))) (re.++ (re.union (re.+ (str.to.re "<")) (re.+ (str.to.re "==="))) (re.++ (re.union (re.union (str.to.re ">") (str.to.re "?")) (re.union (str.to.re "@") (str.to.re "["))) (re.++ (re.union (re.union (str.to.re "\\") (str.to.re "]")) (re.union (str.to.re "^") (str.to.re "__"))) (re.++ (re.+ (re.union (str.to.re "```") (str.to.re "{{{"))) (re.++ (re.union (re.union (str.to.re "|||") (str.to.re "}}}")) (re.union (str.to.re "~~~") (str.to.re "000"))) (re.++ (re.* (re.union (str.to.re "111") (str.to.re "22"))) (re.++ (re.* (re.union (str.to.re "33") (str.to.re "444"))) (re.++ (re.* (re.* (str.to.re "555"))) (re.++ (re.union (re.+ (str.to.re "666")) (re.+ (str.to.re "77"))) (re.++ (re.union (re.+ (str.to.re "8")) (re.+ (str.to.re "99"))) (re.++ (re.* (re.union (str.to.re "a") (str.to.re "bb"))) (re.++ (re.* (re.+ (str.to.re "c"))) (re.++ (re.union (re.* (str.to.re "d")) (re.* (str.to.re "e"))) (re.++ (re.union (re.union (str.to.re "ff") (str.to.re "gg")) (re.union (str.to.re "hhh") (str.to.re "ii"))) (re.++ (re.union (re.* (str.to.re "jjj")) (re.* (str.to.re "kkk"))) (re.++ (re.union (re.* (str.to.re "ll")) (re.* (str.to.re "m"))) (re.++ (re.union (re.union (str.to.re "nn") (str.to.re "o")) (re.union (str.to.re "p") (str.to.re "q"))) (re.++ (re.* (re.* (str.to.re "rr"))) (re.++ (re.union (re.+ (str.to.re "ss")) (re.+ (str.to.re "t"))) (re.++ (re.+ (re.union (str.to.re "uuu") (str.to.re "v"))) (re.++ (re.union (re.* (str.to.re "www")) (re.* (str.to.re "xx"))) (re.++ (re.* (re.+ (str.to.re "y"))) (re.++ (re.union (re.* (str.to.re "z")) (re.* (str.to.re "A"))) (re.++ (re.* (re.+ (str.to.re "B"))) (re.++ (re.union (re.+ (str.to.re "CC")) (re.+ (str.to.re "D"))) (re.++ (re.+ (re.union (str.to.re "E") (str.to.re "F"))) (re.++ (re.+ (re.+ (str.to.re "G"))) (re.++ (re.* (re.union (str.to.re "HHH") (str.to.re "II"))) (re.++ (re.+ (re.union (str.to.re "JJ") (str.to.re "KK"))) (re.++ (re.+ (re.+ (str.to.re "LL"))) (re.++ (re.union (re.* (str.to.re "M")) (re.* (str.to.re "N"))) (re.++ (re.+ (re.* (str.to.re "OOO"))) (re.++ (re.+ (re.+ (str.to.re "PPP"))) (re.++ (re.+ (re.+ (str.to.re "QQ"))) (re.++ (re.union (re.union (str.to.re "R") (str.to.re "S")) (re.union (str.to.re "T") (str.to.re "UU"))) (re.++ (re.+ (re.+ (str.to.re "V"))) (re.++ (re.* (re.union (str.to.re "WWW") (str.to.re "X"))) (re.++ (re.+ (re.union (str.to.re "YY") (str.to.re "ZZZ"))) (re.++ (re.* (re.union (str.to.re "!!") (str.to.re """"))) (re.++ (re.union (re.union (str.to.re "##") (str.to.re "$")) (re.union (str.to.re "%") (str.to.re "&&"))) (re.++ (re.+ (re.union (str.to.re "'") (str.to.re "((("))) (re.++ (re.+ (re.union (str.to.re ")))") (str.to.re "*"))) (re.++ (re.+ (re.* (str.to.re "++"))) (re.++ (re.+ (re.union (str.to.re ",,,") (str.to.re "--"))) (re.++ (re.+ (re.union (str.to.re "..") (str.to.re "/"))) (re.++ (re.union (re.* (str.to.re ":::")) (re.* (str.to.re ";"))) (re.++ (re.+ (re.union (str.to.re "<<<") (str.to.re "==="))) (re.++ (re.+ (re.union (str.to.re ">") (str.to.re "??"))) (re.++ (re.union (re.+ (str.to.re "@@")) (re.+ (str.to.re "[["))) (re.++ (re.* (re.union (str.to.re "\\") (str.to.re "]"))) (re.++ (re.union (re.+ (str.to.re "^")) (re.+ (str.to.re "___"))) (re.++ (re.* (re.* (str.to.re "```"))) (re.++ (re.union (re.* (str.to.re "{{{")) (re.* (str.to.re "|||"))) (re.++ (re.union (re.+ (str.to.re "}")) (re.+ (str.to.re "~~"))) (re.++ (re.* (re.+ (str.to.re "000"))) (re.++ (re.union (re.* (str.to.re "111")) (re.* (str.to.re "222"))) (re.++ (re.* (re.union (str.to.re "33") (str.to.re "44"))) (re.++ (re.+ (re.* (str.to.re "55"))) (re.++ (re.+ (re.* (str.to.re "66"))) (re.++ (re.+ (re.+ (str.to.re "7"))) (re.++ (re.union (re.+ (str.to.re "888")) (re.+ (str.to.re "9"))) (re.++ (re.+ (re.* (str.to.re "aa"))) (re.++ (re.+ (re.* (str.to.re "bb"))) (re.++ (re.+ (re.* (str.to.re "cc"))) (re.++ (re.* (re.+ (str.to.re "d"))) (re.++ (re.union (re.+ (str.to.re "eee")) (re.+ (str.to.re "f"))) (re.++ (re.union (re.* (str.to.re "gg")) (re.* (str.to.re "hhh"))) (re.++ (re.+ (re.+ (str.to.re "i"))) (re.++ (re.* (re.+ (str.to.re "j"))) (re.++ (re.union (re.+ (str.to.re "kk")) (re.+ (str.to.re "ll"))) (re.++ (re.union (re.+ (str.to.re "m")) (re.+ (str.to.re "nn"))) (re.++ (re.* (re.* (str.to.re "oo"))) (re.++ (re.+ (re.+ (str.to.re "ppp"))) (re.++ (re.+ (re.union (str.to.re "qq") (str.to.re "r"))) (re.++ (re.+ (re.* (str.to.re "ss"))) (re.++ (re.union (re.union (str.to.re "ttt") (str.to.re "u")) (re.union (str.to.re "vvv") (str.to.re "www"))) (re.++ (re.+ (re.+ (str.to.re "x"))) (re.++ (re.union (re.+ (str.to.re "yyy")) (re.+ (str.to.re "z"))) (re.++ (re.+ (re.+ (str.to.re "A"))) (re.++ (re.union (re.+ (str.to.re "BBB")) (re.+ (str.to.re "CC"))) (re.++ (re.* (re.+ (str.to.re "D"))) (re.++ (re.union (re.union (str.to.re "E") (str.to.re "F")) (re.union (str.to.re "GGG") (str.to.re "HHH"))) (re.++ (re.union (re.union (str.to.re "II") (str.to.re "J")) (re.union (str.to.re "KKK") (str.to.re "LL"))) (re.++ (re.* (re.+ (str.to.re "M"))) (re.++ (re.union (re.union (str.to.re "NNN") (str.to.re "O")) (re.union (str.to.re "PP") (str.to.re "Q"))) (re.++ (re.union (re.* (str.to.re "RRR")) (re.* (str.to.re "SS"))) (re.++ (re.union (re.* (str.to.re "TTT")) (re.* (str.to.re "UU"))) (re.++ (re.union (re.+ (str.to.re "V")) (re.+ (str.to.re "WW"))) (re.++ (re.union (re.union (str.to.re "XXX") (str.to.re "YY")) (re.union (str.to.re "ZZZ") (str.to.re "!"))) (re.++ (re.+ (re.+ (str.to.re """"""))) (re.++ (re.* (re.+ (str.to.re "###"))) (re.++ (re.+ (re.+ (str.to.re "$$$"))) (re.++ (re.+ (re.+ (str.to.re "%%%"))) (re.union (re.union (str.to.re "&&&") (str.to.re "'")) (re.union (str.to.re "((") (str.to.re ")")))))))))))))))))))))))))))))))))))))))))))))))))))))))))))))))))))))))))))))))))))))))))))))))))))))))))))))))))))))))))))))))))))))))))))))))))
(check-sat)